%%% static parameters %%%
timespan = 1;
Fact = [4];
Distr1 = [15];
Distr2 = [20];
Clients_N = [300];
Demand_W = [15];
Lt0 = [4];
Lt1 = [4];
SS_ = [0.85];
DS_D = [15];
K = [200];
MA = [500];
%%% dynamic parameters %%%
lost_ratio_sales_ret_th = 0.1943999518721808;
lost_ratio_sales_ret_w = 39;
lost_ratio_sales_dis_th = 0.15856966033557457;
lost_ratio_sales_dis_w = 35;
lost_ratio_sales_fac_th = 0.03083343971302324;
lost_ratio_sales_fac_w = 21;
stock_customer_MA_mean_relative_th = 0.2389147221029032;
stock_customer_MA_mean_relative_w = 41;
stock_distributor_MA_mean_relative_th = 0.37498333465079425;
stock_distributor_MA_mean_relative_w = 25;
stock_retailer_MA_mean_relative_th = 0.5828232721868875;
stock_retailer_MA_mean_relative_w = 36;
stock_factory_MA_mean_relative_th = 0.8957899383560319;
stock_factory_MA_mean_relative_w = 64;
